<number of tasks>
58

<cycle time>
104

<task times>
1 10
2 53
3 41
4 36
5 35
6 17
7 34
8 23
9 14
10 52
11 33
12 34
13 12
14 52
15 12
16 33
17 44
18 7
19 15
20 13
21 29
22 37
23 43
24 23
25 24
26 9
27 16
28 12
29 26
30 22
31 51
32 47
33 34
34 23
35 12
36 52
37 12
38 33
39 44
40 7
41 15
42 13
43 29
44 37
45 43
46 23
47 24
48 9
49 16
50 12
51 26
52 12
53 52
54 12
55 33
56 44
57 7
58 15

<precedence relations>
1,9
2,25
3,21
3,22
4,10
5,36
6,23
6,24
7,43
8,44
9,11
11,13
11,14
11,15
12,17
13,17
14,17
15,17
16,18
17,20
18,19
19,23
20,21
20,25
21,26
21,44
22,27
23,31
24,31
25,38
26,29
27,30
28,32
28,33
29,31
30,34
31,36
32,45
33,35
34,36
35,43
36,37
36,38
37,39
37,40
37,41
38,52
39,43
40,43
41,42
42,43
43,45
44,45
45,46
45,48
45,49
46,47
46,50
47,51
48,55
49,58
50,58
51,52
52,53
53,54
54,55
54,56
55,57
56,57
57,58

<setup times forward>
1,2:4
1,3:2
1,4:2
1,5:2
1,6:2
1,7:1
1,8:3
1,10:2
1,12:2
1,18:3
1,19:1
1,22:1
1,23:1
1,24:1
1,27:3
1,28:2
1,30:3
1,33:2
1,34:3
1,35:5
2,1:4
2,3:2
2,4:2
2,5:2
2,6:2
2,7:3
2,8:1
2,9:4
2,10:2
2,11:1
2,12:2
2,13:3
2,14:1
2,15:1
2,16:4
2,17:3
2,18:1
2,19:3
2,20:1
2,21:1
2,22:3
2,23:3
2,24:3
2,25:3
2,26:2
2,27:1
2,28:2
2,29:2
2,30:1
2,32:4
2,33:2
2,34:1
2,35:1
2,36:3
2,37:3
2,39:1
2,40:1
2,41:3
2,42:1
2,43:1
2,44:1
2,45:1
2,46:3
2,47:3
2,48:3
2,49:2
2,50:3
2,51:4
3,1:2
3,2:2
3,7:1
3,8:1
3,9:2
3,11:1
3,13:1
3,14:1
3,15:1
3,16:2
3,17:1
3,18:1
3,19:1
3,20:1
3,21:1
3,22:1
3,23:1
3,24:1
3,25:1
3,32:2
3,35:3
4,1:2
4,2:2
4,7:1
4,8:1
4,9:2
4,11:1
4,13:1
4,14:1
4,15:1
4,16:2
4,17:1
4,18:1
4,19:1
4,20:1
4,21:1
4,22:1
4,23:1
4,24:1
4,25:1
4,27:1
4,30:1
4,31:2
4,32:2
4,34:1
4,35:3
4,36:1
4,37:1
4,38:1
4,39:1
4,40:3
4,41:1
4,42:3
4,43:3
4,44:1
4,45:3
4,46:1
4,47:1
4,48:1
4,50:1
4,51:2
4,52:2
4,53:2
4,54:2
4,55:3
4,56:3
4,57:3
4,58:3
5,1:2
5,2:2
5,7:1
5,8:1
5,9:2
5,11:1
5,13:1
5,14:1
5,15:1
5,16:2
5,17:1
5,18:1
5,19:1
5,20:1
5,21:1
5,22:1
5,23:1
5,24:1
5,25:1
5,27:1
5,30:1
5,31:2
5,32:2
5,34:1
5,35:3
5,36:1
5,44:1
6,1:2
6,2:2
6,7:1
6,8:1
6,9:2
6,11:1
6,13:1
6,14:1
6,15:1
6,16:2
6,17:1
6,18:1
6,19:1
6,20:1
6,21:1
6,22:1
6,23:1
6,24:1
6,25:1
6,27:1
6,30:1
6,32:2
6,34:1
6,35:3
6,44:1
7,1:1
7,2:3
7,3:1
7,4:1
7,5:1
7,6:1
7,8:2
7,9:1
7,10:1
7,11:2
7,12:1
7,14:2
7,15:2
7,16:1
7,18:2
7,20:2
7,21:2
7,26:1
7,27:2
7,28:1
7,29:1
7,30:2
7,31:3
7,32:1
7,33:1
7,34:2
7,35:4
7,39:2
7,40:4
7,42:4
7,43:4
7,44:2
8,1:3
8,2:1
8,3:1
8,4:1
8,5:1
8,6:1
8,7:2
8,9:3
8,10:1
8,12:1
8,13:2
8,16:3
8,17:2
8,19:2
8,22:2
8,23:2
8,24:2
8,25:2
8,26:1
8,28:1
8,29:1
8,31:1
8,32:3
8,33:1
8,35:2
8,36:2
8,37:2
8,38:2
8,40:2
8,41:2
8,42:2
8,43:2
9,2:4
9,3:2
9,4:2
9,5:2
9,6:2
9,7:1
9,8:3
9,10:2
9,11:3
9,12:2
9,18:3
9,19:1
9,22:1
9,23:1
9,24:1
9,27:3
9,28:2
9,30:3
9,33:2
9,34:3
9,35:5
10,1:2
10,2:2
10,7:1
10,8:1
10,9:2
10,11:1
10,13:1
10,14:1
10,15:1
10,16:2
10,17:1
10,18:1
10,19:1
10,20:1
10,21:1
10,22:1
10,23:1
10,24:1
10,25:1
10,27:1
10,30:1
10,31:2
10,32:2
10,34:1
10,35:3
10,36:1
10,37:1
10,38:1
10,39:1
10,40:3
10,41:1
10,42:3
10,43:3
10,44:1
10,45:3
10,46:1
10,47:1
10,48:1
10,50:1
10,51:2
10,52:2
10,53:2
10,54:2
10,55:3
10,56:3
10,57:3
10,58:3
11,2:1
11,3:1
11,4:1
11,5:1
11,6:1
11,7:2
11,10:1
11,12:1
11,13:2
11,16:3
11,19:2
11,22:2
11,23:2
11,24:2
11,28:1
11,32:3
11,33:1
11,35:2
12,1:2
12,2:2
12,7:1
12,8:1
12,9:2
12,11:1
12,13:1
12,14:1
12,15:1
12,16:2
12,17:1
12,18:1
12,19:1
12,22:1
12,23:1
12,24:1
12,27:1
12,30:1
12,32:2
12,34:1
12,35:3
13,2:3
13,3:1
13,4:1
13,5:1
13,6:1
13,8:2
13,10:1
13,12:1
13,14:2
13,15:2
13,16:1
13,18:2
13,27:2
13,28:1
13,30:2
13,32:1
13,33:1
13,34:2
13,35:4
14,2:1
14,3:1
14,4:1
14,5:1
14,6:1
14,7:2
14,10:1
14,12:1
14,13:2
14,16:3
14,17:2
14,19:2
14,22:2
14,23:2
14,24:2
14,28:1
14,32:3
14,33:1
14,35:2
15,2:1
15,3:1
15,4:1
15,5:1
15,6:1
15,7:2
15,10:1
15,12:1
15,13:2
15,16:3
15,17:2
15,19:2
15,22:2
15,23:2
15,24:2
15,28:1
15,32:3
15,33:1
15,35:2
16,2:4
16,3:2
16,4:2
16,5:2
16,6:2
16,7:1
16,8:3
16,10:2
16,11:3
16,12:2
16,13:1
16,14:3
16,15:3
16,17:1
16,18:3
16,20:3
16,21:3
16,22:1
16,24:1
16,25:1
16,26:2
16,27:3
16,28:2
16,29:2
16,30:3
16,33:2
16,34:3
16,35:5
16,44:3
17,2:3
17,3:1
17,4:1
17,5:1
17,6:1
17,8:2
17,10:1
17,16:1
17,18:2
17,20:2
17,27:2
17,28:1
17,30:2
17,32:1
17,33:1
17,34:2
17,35:4
18,1:3
18,2:1
18,3:1
18,4:1
18,5:1
18,6:1
18,7:2
18,9:3
18,10:1
18,12:1
18,13:2
18,17:2
18,19:2
18,22:2
18,24:2
18,25:2
18,26:1
18,28:1
18,29:1
18,32:3
18,33:1
18,35:2
19,1:1
19,2:3
19,3:1
19,4:1
19,5:1
19,6:1
19,8:2
19,9:1
19,10:1
19,11:2
19,12:1
19,14:2
19,15:2
19,20:2
19,21:2
19,26:1
19,27:2
19,28:1
19,29:1
19,30:2
19,32:1
19,33:1
19,34:2
19,35:4
19,44:2
20,2:1
20,3:1
20,4:1
20,5:1
20,6:1
20,7:2
20,10:1
20,16:3
20,19:2
20,22:2
20,23:2
20,24:2
20,25:2
20,28:1
20,32:3
20,33:1
20,35:2
21,2:1
21,4:1
21,5:1
21,6:1
21,7:2
21,10:1
21,16:3
21,19:2
21,22:2
21,23:2
21,24:2
21,25:2
21,26:1
21,28:1
21,32:3
21,33:1
21,35:2
22,1:1
22,2:3
22,4:1
22,5:1
22,6:1
22,8:2
22,9:1
22,10:1
22,11:2
22,12:1
22,14:2
22,15:2
22,16:1
22,18:2
22,20:2
22,21:2
22,26:1
22,27:2
22,28:1
22,29:1
22,31:3
22,32:1
22,33:1
22,35:4
22,44:2
23,1:1
23,2:3
23,3:1
23,4:1
23,5:1
23,8:2
23,9:1
23,10:1
23,11:2
23,12:1
23,14:2
23,15:2
23,20:2
23,21:2
23,26:1
23,27:2
23,28:1
23,29:1
23,30:2
23,31:3
23,32:1
23,33:1
23,34:2
23,35:4
23,44:2
24,1:1
24,2:3
24,3:1
24,4:1
24,5:1
24,8:2
24,9:1
24,10:1
24,11:2
24,12:1
24,14:2
24,15:2
24,16:1
24,18:2
24,20:2
24,21:2
24,26:1
24,27:2
24,28:1
24,29:1
24,30:2
24,31:3
24,32:1
24,33:1
24,34:2
24,35:4
24,44:2
25,3:1
25,4:1
25,5:1
25,6:1
25,8:2
25,10:1
25,16:1
25,18:2
25,21:2
25,26:1
25,27:2
25,28:1
25,29:1
25,30:2
25,31:3
25,32:1
25,33:1
25,34:2
25,35:4
25,39:2
25,40:4
25,42:4
25,43:4
25,44:2
25,45:4
25,49:1
25,51:1
26,2:2
26,7:1
26,8:1
26,16:2
26,18:1
26,19:1
26,22:1
26,23:1
26,24:1
26,25:1
26,27:1
26,30:1
26,32:2
26,34:1
26,35:3
26,44:1
27,1:3
27,2:1
27,4:1
27,5:1
27,6:1
27,7:2
27,9:3
27,10:1
27,12:1
27,13:2
27,16:3
27,17:2
27,19:2
27,23:2
27,24:2
27,25:2
27,26:1
27,28:1
27,29:1
27,31:1
27,32:3
27,33:1
27,35:2
28,1:2
28,2:2
28,7:1
28,8:1
28,9:2
28,11:1
28,13:1
28,14:1
28,15:1
28,16:2
28,17:1
28,18:1
28,19:1
28,20:1
28,21:1
28,22:1
28,23:1
28,24:1
28,25:1
28,27:1
28,30:1
28,31:2
28,32:2
28,34:1
28,36:1
28,37:1
28,38:1
28,39:1
28,40:3
28,41:1
28,42:3
28,44:1
29,2:2
29,7:1
29,8:1
29,16:2
29,18:1
29,19:1
29,22:1
29,23:1
29,24:1
29,25:1
29,27:1
29,30:1
29,31:2
29,32:2
29,34:1
29,35:3
29,44:1
30,1:3
30,2:1
30,4:1
30,5:1
30,6:1
30,7:2
30,9:3
30,10:1
30,12:1
30,13:2
30,16:3
30,17:2
30,19:2
30,23:2
30,24:2
30,25:2
30,26:1
30,28:1
30,29:1
30,31:1
30,32:3
30,33:1
30,35:2
31,4:2
31,5:2
31,7:3
31,8:1
31,10:2
31,22:3
31,25:3
31,27:1
31,28:2
31,30:1
31,32:4
31,33:2
31,34:1
31,35:1
31,36:3
31,44:1
32,2:4
32,3:2
32,4:2
32,5:2
32,6:2
32,7:1
32,8:3
32,10:2
32,11:3
32,12:2
32,13:1
32,14:3
32,15:3
32,17:1
32,18:3
32,19:1
32,20:3
32,21:3
32,22:1
32,23:1
32,24:1
32,25:1
32,26:2
32,27:3
32,29:2
32,30:3
32,31:4
32,33:2
32,34:3
32,35:5
32,36:1
32,37:1
32,38:1
32,39:3
32,40:5
32,41:1
32,42:5
32,43:5
32,44:3
32,45:5
33,1:2
33,2:2
33,7:1
33,8:1
33,9:2
33,11:1
33,13:1
33,14:1
33,15:1
33,16:2
33,17:1
33,18:1
33,19:1
33,20:1
33,21:1
33,22:1
33,23:1
33,24:1
33,25:1
33,27:1
33,30:1
33,31:2
33,32:2
33,34:1
33,35:3
33,36:1
33,37:1
33,38:1
33,39:1
33,40:3
33,41:1
33,42:3
33,44:1
34,1:3
34,2:1
34,4:1
34,5:1
34,6:1
34,7:2
34,9:3
34,10:1
34,12:1
34,13:2
34,16:3
34,17:2
34,19:2
34,23:2
34,24:2
34,25:2
34,26:1
34,28:1
34,29:1
34,31:1
34,32:3
34,33:1
34,35:2
34,36:2
35,1:5
35,2:1
35,3:3
35,4:3
35,5:3
35,6:3
35,7:4
35,8:2
35,9:5
35,10:3
35,11:2
35,12:3
35,13:4
35,14:2
35,15:2
35,16:5
35,17:4
35,18:2
35,19:4
35,20:2
35,21:2
35,22:4
35,23:4
35,24:4
35,25:4
35,26:3
35,27:2
35,29:3
35,30:2
35,31:1
35,32:5
35,34:2
35,36:4
35,37:4
35,38:4
35,39:2
35,41:4
35,44:2
36,2:3
36,4:1
36,8:2
36,10:1
36,28:1
36,32:1
36,33:1
36,35:4
36,44:2
37,2:3
37,4:1
37,8:2
37,10:1
37,28:1
37,32:1
37,33:1
37,35:4
37,39:2
37,40:4
37,44:2
38,4:1
38,8:2
38,10:1
38,28:1
38,32:1
38,33:1
38,35:4
38,39:2
38,40:4
38,42:4
38,43:4
38,44:2
38,45:4
38,49:1
38,51:1
38,52:1
39,2:1
39,4:1
39,7:2
39,10:1
39,25:2
39,28:1
39,32:3
39,33:1
39,35:2
39,38:2
39,40:2
39,41:2
39,42:2
39,43:2
40,2:1
40,4:3
40,7:4
40,8:2
40,10:3
40,25:4
40,28:3
40,32:5
40,33:3
40,38:4
40,39:2
40,41:4
40,44:2
41,2:3
41,4:1
41,8:2
41,10:1
41,28:1
41,32:1
41,33:1
41,35:4
41,39:2
41,40:4
41,42:4
41,44:2
42,2:1
42,4:3
42,7:4
42,8:2
42,10:3
42,25:4
42,28:3
42,32:5
42,33:3
42,38:4
42,39:2
42,44:2
43,2:1
43,4:3
43,8:2
43,10:3
43,25:4
43,32:5
43,38:4
43,44:2
44,2:1
44,4:1
44,5:1
44,6:1
44,7:2
44,10:1
44,16:3
44,19:2
44,22:2
44,23:2
44,24:2
44,25:2
44,26:1
44,28:1
44,29:1
44,31:1
44,32:3
44,33:1
44,35:2
44,36:2
44,37:2
44,38:2
44,40:2
44,41:2
44,42:2
44,43:2
44,45:2
45,2:1
45,4:3
45,10:3
45,25:4
45,38:4
45,46:4
45,48:4
45,49:3
46,2:3
46,4:1
46,10:1
46,49:1
47,2:3
47,4:1
47,10:1
47,49:1
47,51:1
48,2:3
48,4:1
48,10:1
48,49:1
48,51:1
48,52:1
48,53:1
48,54:1
48,55:4
48,56:4
49,2:2
49,25:1
49,38:1
49,46:1
49,47:1
49,48:1
49,50:1
49,51:2
49,52:2
49,53:2
49,54:2
49,55:3
49,56:3
49,57:3
49,58:3
50,2:3
50,4:1
50,10:1
50,49:1
50,51:1
50,52:1
50,53:1
50,54:1
50,55:4
50,56:4
50,57:4
50,58:4
51,2:4
51,4:2
51,10:2
51,25:1
51,38:1
51,48:1
51,49:2
51,50:1
52,4:2
52,10:2
52,48:1
52,49:2
52,50:1
53,4:2
53,10:2
53,48:1
53,49:2
53,50:1
54,4:2
54,10:2
54,48:1
54,49:2
54,50:1
54,55:5
54,56:5
55,4:3
55,10:3
55,49:3
55,50:4
56,4:3
56,10:3
56,48:4
56,49:3
56,50:4
57,4:3
57,10:3
57,49:3
57,50:4
58,4:3
58,10:3

<setup times backward>
1,2:4
1,3:2
1,4:2
1,5:2
1,6:2
1,7:1
1,8:3
1,10:2
1,12:2
1,18:3
1,19:1
1,22:1
1,23:1
1,24:1
1,27:3
1,28:2
1,30:3
1,33:2
1,34:3
1,35:5
2,35:1
2,40:1
2,42:1
2,43:1
2,45:1
3,2:2
3,8:1
3,11:1
3,14:1
3,15:1
3,18:1
3,20:1
3,35:3
4,2:2
4,8:1
4,11:1
4,14:1
4,15:1
4,18:1
4,20:1
4,21:1
4,27:1
4,30:1
4,31:2
4,34:1
4,35:3
4,39:1
4,40:3
4,42:3
4,43:3
4,44:1
4,45:3
4,55:3
4,56:3
4,57:3
4,58:3
5,2:2
5,8:1
5,11:1
5,14:1
5,15:1
5,18:1
5,20:1
5,21:1
5,27:1
5,30:1
5,31:2
5,34:1
5,35:3
5,44:1
6,2:2
6,8:1
6,11:1
6,14:1
6,15:1
6,18:1
6,20:1
6,21:1
6,27:1
6,30:1
6,34:1
6,35:3
6,44:1
7,2:3
7,3:1
7,4:1
7,5:1
7,6:1
7,8:2
7,10:1
7,11:2
7,12:1
7,14:2
7,15:2
7,18:2
7,20:2
7,21:2
7,26:1
7,27:2
7,28:1
7,29:1
7,30:2
7,31:3
7,33:1
7,34:2
7,35:4
7,39:2
7,40:4
7,42:4
7,44:2
8,2:1
8,31:1
8,35:2
8,40:2
8,42:2
8,43:2
9,2:4
9,3:2
9,4:2
9,5:2
9,6:2
9,7:1
9,8:3
9,10:2
9,12:2
9,18:3
9,19:1
9,22:1
9,23:1
9,24:1
9,27:3
9,28:2
9,30:3
9,33:2
9,34:3
9,35:5
10,2:2
10,8:1
10,11:1
10,14:1
10,15:1
10,18:1
10,20:1
10,21:1
10,27:1
10,30:1
10,31:2
10,34:1
10,35:3
10,39:1
10,40:3
10,42:3
10,43:3
10,44:1
10,45:3
10,55:3
10,56:3
10,57:3
10,58:3
11,2:1
11,35:2
12,2:2
12,8:1
12,11:1
12,14:1
12,15:1
12,18:1
12,27:1
12,30:1
12,34:1
12,35:3
13,2:3
13,3:1
13,4:1
13,5:1
13,6:1
13,8:2
13,10:1
13,11:2
13,12:1
13,14:2
13,15:2
13,18:2
13,27:2
13,28:1
13,30:2
13,33:1
13,34:2
13,35:4
14,2:1
14,35:2
15,2:1
15,35:2
16,2:4
16,3:2
16,4:2
16,5:2
16,6:2
16,7:1
16,8:3
16,10:2
16,11:3
16,12:2
16,13:1
16,14:3
16,15:3
16,17:1
16,20:3
16,21:3
16,22:1
16,24:1
16,25:1
16,26:2
16,27:3
16,28:2
16,29:2
16,30:3
16,33:2
16,34:3
16,35:5
16,44:3
17,2:3
17,3:1
17,4:1
17,5:1
17,6:1
17,8:2
17,10:1
17,11:2
17,12:1
17,14:2
17,15:2
17,18:2
17,27:2
17,28:1
17,30:2
17,33:1
17,34:2
17,35:4
18,2:1
18,35:2
19,2:3
19,3:1
19,4:1
19,5:1
19,6:1
19,8:2
19,10:1
19,11:2
19,12:1
19,14:2
19,15:2
19,18:2
19,20:2
19,21:2
19,26:1
19,27:2
19,28:1
19,29:1
19,30:2
19,33:1
19,34:2
19,35:4
19,44:2
20,2:1
20,35:2
21,2:1
21,35:2
22,2:3
22,3:1
22,4:1
22,5:1
22,6:1
22,8:2
22,10:1
22,11:2
22,12:1
22,14:2
22,15:2
22,18:2
22,20:2
22,21:2
22,26:1
22,28:1
22,29:1
22,31:3
22,33:1
22,35:4
22,44:2
23,2:3
23,3:1
23,4:1
23,5:1
23,6:1
23,8:2
23,10:1
23,11:2
23,12:1
23,14:2
23,15:2
23,18:2
23,20:2
23,21:2
23,26:1
23,27:2
23,28:1
23,29:1
23,30:2
23,33:1
23,34:2
23,35:4
23,44:2
24,2:3
24,3:1
24,4:1
24,5:1
24,6:1
24,8:2
24,10:1
24,11:2
24,12:1
24,14:2
24,15:2
24,18:2
24,20:2
24,21:2
24,26:1
24,27:2
24,28:1
24,29:1
24,30:2
24,33:1
24,34:2
24,35:4
24,44:2
25,2:3
25,3:1
25,4:1
25,5:1
25,6:1
25,8:2
25,10:1
25,11:2
25,12:1
25,14:2
25,15:2
25,18:2
25,20:2
25,21:2
25,26:1
25,27:2
25,28:1
25,29:1
25,30:2
25,31:3
25,33:1
25,34:2
25,35:4
25,39:2
25,40:4
25,42:4
25,43:4
25,44:2
25,45:4
25,49:1
26,2:2
26,8:1
26,11:1
26,14:1
26,15:1
26,18:1
26,20:1
26,21:1
26,27:1
26,30:1
26,34:1
26,35:3
26,44:1
27,2:1
27,31:1
27,35:2
28,2:2
28,8:1
28,11:1
28,14:1
28,15:1
28,18:1
28,20:1
28,21:1
28,27:1
28,30:1
28,31:2
28,34:1
28,39:1
28,40:3
28,42:3
28,44:1
29,2:2
29,8:1
29,11:1
29,14:1
29,15:1
29,18:1
29,20:1
29,21:1
29,27:1
29,30:1
29,34:1
29,35:3
29,44:1
30,2:1
30,31:1
30,35:2
31,35:1
32,2:4
32,3:2
32,4:2
32,5:2
32,6:2
32,7:1
32,8:3
32,10:2
32,11:3
32,12:2
32,13:1
32,14:3
32,15:3
32,17:1
32,18:3
32,19:1
32,20:3
32,21:3
32,22:1
32,23:1
32,24:1
32,25:1
32,26:2
32,27:3
32,28:2
32,29:2
32,30:3
32,31:4
32,33:2
32,34:3
32,35:5
32,36:1
32,37:1
32,38:1
32,39:3
32,40:5
32,41:1
32,42:5
32,43:5
32,44:3
33,2:2
33,8:1
33,11:1
33,14:1
33,15:1
33,18:1
33,20:1
33,21:1
33,27:1
33,30:1
33,31:2
33,34:1
33,39:1
33,40:3
33,42:3
33,44:1
34,2:1
34,31:1
34,35:2
36,2:3
36,3:1
36,4:1
36,5:1
36,6:1
36,8:2
36,10:1
36,11:2
36,12:1
36,14:2
36,15:2
36,18:2
36,20:2
36,21:2
36,26:1
36,27:2
36,28:1
36,29:1
36,30:2
36,31:3
36,33:1
36,34:2
36,35:4
36,44:2
37,2:3
37,3:1
37,4:1
37,5:1
37,6:1
37,8:2
37,10:1
37,11:2
37,12:1
37,14:2
37,15:2
37,18:2
37,20:2
37,21:2
37,26:1
37,27:2
37,28:1
37,29:1
37,30:2
37,31:3
37,33:1
37,34:2
37,35:4
37,44:2
38,2:3
38,3:1
38,4:1
38,5:1
38,6:1
38,8:2
38,10:1
38,11:2
38,12:1
38,14:2
38,15:2
38,18:2
38,20:2
38,21:2
38,26:1
38,27:2
38,28:1
38,29:1
38,30:2
38,31:3
38,33:1
38,34:2
38,35:4
38,39:2
38,40:4
38,42:4
38,43:4
38,44:2
38,45:4
38,49:1
39,2:1
39,31:1
39,35:2
39,40:2
39,42:2
41,2:3
41,3:1
41,4:1
41,5:1
41,6:1
41,8:2
41,10:1
41,11:2
41,12:1
41,14:2
41,15:2
41,18:2
41,20:2
41,21:2
41,26:1
41,27:2
41,28:1
41,29:1
41,30:2
41,31:3
41,33:1
41,34:2
41,35:4
41,39:2
41,40:4
41,44:2
44,2:1
44,31:1
44,35:2
44,40:2
44,42:2
44,43:2
46,2:3
46,3:1
46,4:1
46,5:1
46,6:1
46,8:2
46,10:1
46,11:2
46,12:1
46,14:2
46,15:2
46,18:2
46,20:2
46,21:2
46,26:1
46,27:2
46,28:1
46,29:1
46,30:2
46,31:3
46,33:1
46,34:2
46,35:4
46,39:2
46,40:4
46,42:4
46,43:4
46,44:2
46,45:4
46,49:1
47,2:3
47,3:1
47,4:1
47,5:1
47,6:1
47,8:2
47,10:1
47,11:2
47,12:1
47,14:2
47,15:2
47,18:2
47,20:2
47,21:2
47,26:1
47,27:2
47,28:1
47,29:1
47,30:2
47,31:3
47,33:1
47,34:2
47,35:4
47,39:2
47,40:4
47,42:4
47,43:4
47,44:2
47,45:4
47,49:1
48,2:3
48,3:1
48,4:1
48,5:1
48,6:1
48,8:2
48,10:1
48,11:2
48,12:1
48,14:2
48,15:2
48,18:2
48,20:2
48,21:2
48,26:1
48,27:2
48,28:1
48,29:1
48,30:2
48,31:3
48,33:1
48,34:2
48,35:4
48,39:2
48,40:4
48,42:4
48,43:4
48,44:2
48,45:4
48,49:1
48,56:4
49,2:2
49,8:1
49,11:1
49,14:1
49,15:1
49,18:1
49,20:1
49,21:1
49,27:1
49,30:1
49,31:2
49,34:1
49,35:3
49,39:1
49,40:3
49,42:3
49,43:3
49,44:1
49,45:3
49,55:3
49,56:3
49,57:3
50,2:3
50,3:1
50,4:1
50,5:1
50,6:1
50,8:2
50,10:1
50,11:2
50,12:1
50,14:2
50,15:2
50,18:2
50,20:2
50,21:2
50,26:1
50,27:2
50,28:1
50,29:1
50,30:2
50,31:3
50,33:1
50,34:2
50,35:4
50,39:2
50,40:4
50,42:4
50,43:4
50,44:2
50,45:4
50,49:1
50,55:4
50,56:4
50,57:4
51,2:4
51,3:2
51,4:2
51,5:2
51,6:2
51,7:1
51,8:3
51,10:2
51,11:3
51,12:2
51,13:1
51,14:3
51,15:3
51,17:1
51,18:3
51,19:1
51,20:3
51,21:3
51,22:1
51,23:1
51,24:1
51,25:1
51,26:2
51,27:3
51,28:2
51,29:2
51,30:3
51,31:4
51,33:2
51,34:3
51,35:5
51,36:1
51,37:1
51,38:1
51,39:3
51,40:5
51,41:1
51,42:5
51,43:5
51,44:3
51,45:5
51,46:1
51,47:1
51,48:1
51,49:2
51,50:1
52,2:4
52,3:2
52,4:2
52,5:2
52,6:2
52,7:1
52,8:3
52,10:2
52,11:3
52,12:2
52,13:1
52,14:3
52,15:3
52,17:1
52,18:3
52,19:1
52,20:3
52,21:3
52,22:1
52,23:1
52,24:1
52,25:1
52,26:2
52,27:3
52,28:2
52,29:2
52,30:3
52,31:4
52,33:2
52,34:3
52,35:5
52,36:1
52,37:1
52,38:1
52,39:3
52,40:5
52,41:1
52,42:5
52,43:5
52,44:3
52,45:5
52,46:1
52,47:1
52,48:1
52,49:2
52,50:1
53,2:4
53,3:2
53,4:2
53,5:2
53,6:2
53,7:1
53,8:3
53,10:2
53,11:3
53,12:2
53,13:1
53,14:3
53,15:3
53,17:1
53,18:3
53,19:1
53,20:3
53,21:3
53,22:1
53,23:1
53,24:1
53,25:1
53,26:2
53,27:3
53,28:2
53,29:2
53,30:3
53,31:4
53,33:2
53,34:3
53,35:5
53,36:1
53,37:1
53,38:1
53,39:3
53,40:5
53,41:1
53,42:5
53,43:5
53,44:3
53,45:5
53,46:1
53,47:1
53,48:1
53,49:2
53,50:1
54,2:4
54,3:2
54,4:2
54,5:2
54,6:2
54,7:1
54,8:3
54,10:2
54,11:3
54,12:2
54,13:1
54,14:3
54,15:3
54,17:1
54,18:3
54,19:1
54,20:3
54,21:3
54,22:1
54,23:1
54,24:1
54,25:1
54,26:2
54,27:3
54,28:2
54,29:2
54,30:3
54,31:4
54,33:2
54,34:3
54,35:5
54,36:1
54,37:1
54,38:1
54,39:3
54,40:5
54,41:1
54,42:5
54,43:5
54,44:3
54,45:5
54,46:1
54,47:1
54,48:1
54,49:2
54,50:1

<end>

<optimal SALBP-1 value>
15


<rand seed>
467321153

<Lower Bounds>
Lm1=15
Lms1=15
Lm2=3
Lm3=9
Lm4=15
Best=15

<Optimal Stations (Iterations: 10)>
17
